\ Model RDS
\ LP format - for model browsing. Use MPS format to capture full model detail.
Minimize
  0.00575259116172393 I + 0.0307595167324284 I + 0.0228356655660625 I
   + 0.0237777927519847 I + 0.0510994811437299 I + 0.0116798814042811 I
   + 0.044386045037423 I + 0.0642643047350938 I + 0.0651378001392601 I
   + 0.0122663711756499 I + 0.0233597628085623 I + 0.0915922323797259 I
   + 0.0337917936354629 I + 0.0368739845615927 I + 0.0465635442949519 I
   + 0.0804239697121708 I + 0.0456713311321249 I + 0.0102323747345198 I
   + 0.0938508419247845 I + 0.025549740571865 I + 0.0442300637152505 I
   + 0.0281515090257032 I + 0.0560284909243828 I + 0.0559037058666447 I
   + 0.0126656833604117 I + 0.0177319567045764 I + 0.0660736880722955 I
   + 0.0501760717164684 I + 0.0316642084010292 I + 0.0607952801299761 I
   + 0.0193728802138317 I + 0.0212758523443369 I + 0.1247850577380462 I
   + 0.1247850577380462 I + 0.1247850577380462 I + 0.0311962644345116 I
   + 0.0311962644345116 I + 0.00575259116172393 I + 0.0307595167324284 I
   + 0.0228356655660625 I + 0.0237777927519847 I + 0.0510994811437299 I
   + 0.0116798814042811 I + 0.044386045037423 I + 0.0642643047350938 I
   + 0.0651378001392601 I + 0.0122663711756499 I + 0.0233597628085623 I
   + 0.0915922323797259 I + 0.0337917936354629 I + 0.0368739845615927 I
   + 0.0465635442949519 I + 0.0804239697121708 I + 0.0456713311321249 I
   + 0.0102323747345198 I + 0.0938508419247845 I + 0.025549740571865 I
   + 0.0442300637152505 I + 0.0281515090257032 I + 0.0560284909243828 I
   + 0.0559037058666447 I + 0.0126656833604117 I + 0.0177319567045764 I
   + 0.0660736880722955 I + 0.0501760717164684 I + 0.0316642084010292 I
   + 0.0607952801299761 I + 0.0193728802138317 I + 0.0212758523443369 I
   + 0.1247850577380462 I + 0.1247850577380462 I + 0.1247850577380462 I
   + 0.0311962644345116 I + 0.0311962644345116 I
Subject To
 R0: - 0.00575259116172393 I - p + p <= 0
 R1: p - 0.0307595167324284 I - p - 0.0102323747345198 I - p
   - 0.00575259116172393 I - p + p + p = 0.01
 R2: p - 0.0228356655660625 I - p - 0.0281515090257032 I - p
   - 0.0307595167324284 I - p + p + p = 0.009
 R3: p - 0.0237777927519847 I - p - 0.0228356655660625 I - p + p = 0.012
 R4: p - 0.0510994811437299 I - p - 0.0237777927519847 I - p + p = 0.006
 R5: p - 0.0116798814042811 I - p - 0.0126656833604117 I - p
   - 0.0510994811437299 I - p + p + p = 0.006
 R6: p - 0.044386045037423 I - p - 0.0116798814042811 I - p + p = 0.02
 R7: p - 0.0642643047350938 I - p - 0.1247850577380462 I - p
   - 0.044386045037423 I - p + p + p = 0.02
 R8: p - 0.0651378001392601 I - p - 0.1247850577380462 I - p
   - 0.0642643047350938 I - p + p + p = 0.006
 R9: p - 0.0122663711756499 I - p - 0.0651378001392601 I - p + p = 0.006
 R10: p - 0.0233597628085623 I - p - 0.0122663711756499 I - p + p = 0.0045
 R11: p - 0.0915922323797259 I - p - 0.1247850577380462 I - p
   - 0.0233597628085623 I - p + p + p = 0.006
 R12: p - 0.0337917936354629 I - p - 0.0915922323797259 I - p + p = 0.006
 R13: p - 0.0368739845615927 I - p - 0.0337917936354629 I - p + p = 0.012
 R14: p - 0.0465635442949519 I - p + p - 0.0368739845615927 I - p + p
   - 0.1247850577380462 I - p = 0.006
 R15: p - 0.0804239697121708 I - p - 0.0465635442949519 I - p + p = 0.006
 R16: p - 0.0456713311321249 I - p - 0.0804239697121708 I - p + p = 0.006
 R17: p - 0.0311962644345116 I - p - 0.0456713311321249 I - p + p = 0.009
 R18: p - 0.0938508419247845 I - p - 0.0102323747345198 I - p + p = 0.009
 R19: p - 0.025549740571865 I - p - 0.0938508419247845 I - p + p = 0.009
 R20: p - 0.0442300637152505 I - p + p - 0.025549740571865 I - p + p
   - 0.1247850577380462 I - p = 0.009
 R21: p + p - 0.0442300637152505 I - p - 0.1247850577380462 I - p = 0.009
 R22: p - 0.0560284909243828 I - p - 0.0281515090257032 I - p + p = 0.009
 R23: p - 0.0559037058666447 I - p - 0.0560284909243828 I - p + p = 0.042
 R24: p - 0.0311962644345116 I - p - 0.0559037058666447 I - p + p = 0.042
 R25: p - 0.0177319567045764 I - p - 0.0126656833604117 I - p + p = 0.006
 R26: p - 0.0660736880722955 I - p - 0.0177319567045764 I - p + p = 0.006
 R27: p - 0.0501760717164684 I - p - 0.0660736880722955 I - p + p = 0.006
 R28: p - 0.0316642084010292 I - p + p - 0.0501760717164684 I - p + p
   - 0.0311962644345116 I - p = 0.012
 R29: p - 0.0607952801299761 I - p - 0.0316642084010292 I - p + p = 0.02
 R30: p - 0.0193728802138317 I - p - 0.0607952801299761 I - p + p = 0.015
 R31: p - 0.0212758523443369 I - p - 0.0193728802138317 I - p + p = 0.021
 R32: p + p - 0.0212758523443369 I - p - 0.0311962644345116 I - p = 0.006
 R33: - 0.00293244885684409 I - q + q <= 0
 R34: q - 0.0156667639990117 I - q - 0.00976443076800212 I - q
   - 0.00293244885684409 I - q + q + q = 0.006
 R35: q - 0.0116299673811859 I - q - 0.0192356166503198 I - q
   - 0.0156667639990117 I - q + q + q = 0.004
 R36: q - 0.0121103898534774 I - q - 0.0116299673811859 I - q + q = 0.008
 R37: q - 0.0441115179103993 I - q - 0.0121103898534774 I - q + q = 0.003
 R38: q - 0.0386084968641515 I - q - 0.00645138748505699 I - q
   - 0.0441115179103993 I - q + q + q = 0.002
 R39: q - 0.0146684835371073 I - q - 0.0386084968641515 I - q + q = 0.01
 R40: q - 0.0461704713630771 I - q - 0.1247850577380462 I - q
   - 0.0146684835371073 I - q + q + q = 0.01
 R41: q - 0.0461704713630771 I - q - 0.1247850577380462 I - q
   - 0.0461704713630771 I - q + q + q = 0.002
 R42: q - 0.0040555143764865 I - q - 0.0461704713630771 I - q + q = 0.002
 R43: q - 0.00772419507398506 I - q - 0.0040555143764865 I - q + q = 0.003
 R44: q - 0.0720633708437217 I - q - 0.1247850577380462 I - q
   - 0.00772419507398506 I - q + q + q = 0.0035
 R45: q - 0.0444796338307266 I - q - 0.0720633708437217 I - q + q = 0.0035
 R46: q - 0.0328184701851062 I - q - 0.0444796338307266 I - q + q = 0.008
 R47: q - 0.0340039282336176 I - q + q - 0.0328184701851062 I - q + q
   - 0.1247850577380462 I - q = 0.001
 R48: q - 0.1073775421835888 I - q - 0.0340039282336176 I - q + q = 0.002
 R49: q - 0.0358133115708193 I - q - 0.1073775421835888 I - q + q = 0.002
 R50: q - 0.0311962644345116 I - q - 0.0358133115708193 I - q + q = 0.004
 R51: q - 0.0845668336290739 I - q - 0.00976443076800212 I - q + q = 0.004
 R52: q - 0.0298485858109407 I - q - 0.0845668336290739 I - q + q = 0.004
 R53: q - 0.0584805173089354 I - q + q - 0.0298485858109407 I - q + q
   - 0.1247850577380462 I - q = 0.004
 R54: q + q - 0.0584805173089354 I - q - 0.1247850577380462 I - q = 0.004
 R55: q - 0.0442425422210243 I - q - 0.0192356166503198 I - q + q = 0.005
 R56: q - 0.0437434019900721 I - q - 0.0442425422210243 I - q + q = 0.02
 R57: q - 0.0311962644345116 I - q - 0.0437434019900721 I - q + q = 0.02
 R58: q - 0.00902819892734764 I - q - 0.00645138748505699 I - q + q
   = 0.0025
 R59: q - 0.0582559042050069 I - q - 0.00902819892734764 I - q + q
   = 0.0025
 R60: q - 0.0437122057256376 I - q - 0.0582559042050069 I - q + q = 0.002
 R61: q - 0.0161284687126425 I - q + q - 0.0437122057256376 I - q + q
   - 0.0311962644345116 I - q = 0.007
 R62: q - 0.0600840053008692 I - q - 0.0161284687126425 I - q + q = 0.06
 R63: q - 0.0225798561976995 I - q - 0.0600840053008692 I - q + q = 0.007
 R64: q - 0.033080518806356 I - q - 0.0225798561976995 I - q + q = 0.01
 R65: q + q - 0.033080518806356 I - q - 0.0311962644345116 I - q = 0.004
 R66: - delta + 4.16916e-05 I - 0.0115051823234479 p
   - 0.00586489771368817 q + v - v = 0
 R67: - delta + 0.00119159536381327 I - 0.0615190334648568 p
   - 0.0313335279980234 q + v - v = 0
 R68: - delta + 6.5672376313249872e-04 I - 0.0456713311321249 p
   - 0.0232599347623718 q + v - v = 0
 R69: - delta + 0.000712045 I - 0.0475555855039694 p - 0.0242207797069548 q
   + v - v = 0
 R70: - delta + 0.00455698298551789 I - 0.1021989622874598 p
   - 0.0882230358207987 q + v - v = 0
 R71: - delta + 0.00162703565972727 I - 0.0233597628085623 p
   - 0.077216993728303 q + v - v = 0
 R72: - delta + 0.00218528540334254 I - 0.0887720900748461 p
   - 0.0293369670742147 q + v - v = 0
 R73: - delta + 0.00626161328897372 I - 0.1285286094701876 p
   - 0.0923409427261542 q + v - v = 0
 R74: - delta + 0.00637464543287092 I - 0.1302756002785203 p
   - 0.0923409427261542 q + v - v = 0
 R75: - delta + 0.000166911 I - 0.0245327423512999 p - 0.008111028752973 q
   + v - v = 0
 R76: - delta + 6.0534170801326327e-04 I - 0.0467195256171245 p
   - 0.0154483901479701 q + v - v = 0
 R77: - delta + 0.0135822664496615 I - 0.1831844647594518 p
   - 0.1441267416874434 q + v - v = 0
 R78: - delta + 0.00312032314281723 I - 0.0675835872709258 p
   - 0.0889592676614531 q + v - v = 0
 R79: - delta + 0.00243674272273928 I - 0.0737479691231853 p
   - 0.0656369403702123 q + v - v = 0
 R80: - delta + 0.00332443079262497 I - 0.0931270885899039 p
   - 0.0680078564672352 q + v - v = 0
 R81: - delta + 0.0179979514696525 I - 0.1608479394243416 p
   - 0.2147550843671775 q + v - v = 0
 R82: - delta + 0.00336846377304878 I - 0.0913426622642498 p
   - 0.0716266231416385 q + v - v = 0
 R83: - delta + 2.0004560093074531e-04 I - 0.0204647494690396 p
   - 0.0195288615360042 q + v - v = 0
 R84: - delta + 0.0159595298800384 I - 0.1877016838495691 p
   - 0.1691336672581478 q + v - v = 0
 R85: - delta + 0.00154372731820269 I - 0.0510994811437299 p
   - 0.0596971716218813 q + v - v = 0
 R86: - delta + 0.0053762694409758 I - 0.088460127430501 p
   - 0.1169610346178707 q + v - v = 0
 R87: - delta + 0.00116251640834231 I - 0.0563030180514064 p
   - 0.0384712333006396 q + v - v = 0
 R88: - delta + 0.00509659433744276 I - 0.1120569818487655 p
   - 0.0884850844420486 q + v - v = 0
 R89: - delta + 0.00503870954728937 I - 0.1118074117332894 p
   - 0.0874868039801442 q + v - v = 0
 R90: - delta + 0.00020204 I - 0.0253313667208234 p - 0.012902774970114 q
   + v - v = 0
 R91: - delta + 3.9593066444473183e-04 I - 0.0354639134091527 p
   - 0.0180563978546953 q + v - v = 0
 R92: - delta + 0.00775948263021794 I - 0.1321473761445909 p
   - 0.1165118084100137 q + v - v = 0
 R93: - delta + 0.00442839510229664 I - 0.1003521434329368 p
   - 0.0874244114512752 q + v - v = 0
 R94: - delta + 0.0012627495966785 I - 0.0633284168020584 p
   - 0.0322569374252849 q + v - v = 0
 R95: - delta + 0.00730615377907715 I - 0.1215905602599522 p
   - 0.1201680106017385 q + v - v = 0
 R96: - delta + 8.8515839368825738e-04 I - 0.0387457604276633 p
   - 0.0451597123953989 q + v - v = 0
 R97: - delta + 0.0015469826174757 I - 0.0425517046886738 p
   - 0.0661610376127121 q + v - v = 0
 R98: - delta + 0.0311426212693751 I - 0.2495701154760924 p
   - 0.2495701154760924 q + v - v = 0
 R99: - delta + 0.0311426212693751 I - 0.2495701154760924 p
   - 0.2495701154760924 q + v - v = 0
 R100: - delta + 0.0311426212693751 I - 0.2495701154760924 p
   - 0.2495701154760924 q + v - v = 0
 R101: - delta + 0.00194641382933594 I - 0.0623925288690231 p
   - 0.0623925288690231 q + v - v = 0
 R102: - delta + 0.00194641382933594 I - 0.0623925288690231 p
   - 0.0623925288690231 q + v - v = 0
 R103: - delta + 4.16916e-05 I - 0.0115051823234479 p
   - 0.00586489771368817 q - v + v = 0
 R104: - delta + 0.00119159536381327 I - 0.0615190334648568 p
   - 0.0313335279980234 q - v + v = 0
 R105: - delta + 6.5672376313249872e-04 I - 0.0456713311321249 p
   - 0.0232599347623718 q - v + v = 0
 R106: - delta + 0.000712045 I - 0.0475555855039694 p
   - 0.0242207797069548 q - v + v = 0
 R107: - delta + 0.00455698298551789 I - 0.1021989622874598 p
   - 0.0882230358207987 q - v + v = 0
 R108: - delta + 0.00162703565972727 I - 0.0233597628085623 p
   - 0.077216993728303 q - v + v = 0
 R109: - delta + 0.00218528540334254 I - 0.0887720900748461 p
   - 0.0293369670742147 q - v + v = 0
 R110: - delta + 0.00626161328897372 I - 0.1285286094701876 p
   - 0.0923409427261542 q - v + v = 0
 R111: - delta + 0.00637464543287092 I - 0.1302756002785203 p
   - 0.0923409427261542 q - v + v = 0
 R112: - delta + 0.000166911 I - 0.0245327423512999 p - 0.008111028752973 q
   - v + v = 0
 R113: - delta + 6.0534170801326327e-04 I - 0.0467195256171245 p
   - 0.0154483901479701 q - v + v = 0
 R114: - delta + 0.0135822664496615 I - 0.1831844647594518 p
   - 0.1441267416874434 q - v + v = 0
 R115: - delta + 0.00312032314281723 I - 0.0675835872709258 p
   - 0.0889592676614531 q - v + v = 0
 R116: - delta + 0.00243674272273928 I - 0.0737479691231853 p
   - 0.0656369403702123 q - v + v = 0
 R117: - delta + 0.00332443079262497 I - 0.0931270885899039 p
   - 0.0680078564672352 q - v + v = 0
 R118: - delta + 0.0179979514696525 I - 0.1608479394243416 p
   - 0.2147550843671775 q - v + v = 0
 R119: - delta + 0.00336846377304878 I - 0.0913426622642498 p
   - 0.0716266231416385 q - v + v = 0
 R120: - delta + 2.0004560093074531e-04 I - 0.0204647494690396 p
   - 0.0195288615360042 q - v + v = 0
 R121: - delta + 0.0159595298800384 I - 0.1877016838495691 p
   - 0.1691336672581478 q - v + v = 0
 R122: - delta + 0.00154372731820269 I - 0.0510994811437299 p
   - 0.0596971716218813 q - v + v = 0
 R123: - delta + 0.0053762694409758 I - 0.088460127430501 p
   - 0.1169610346178707 q - v + v = 0
 R124: - delta + 0.00116251640834231 I - 0.0563030180514064 p
   - 0.0384712333006396 q - v + v = 0
 R125: - delta + 0.00509659433744276 I - 0.1120569818487655 p
   - 0.0884850844420486 q - v + v = 0
 R126: - delta + 0.00503870954728937 I - 0.1118074117332894 p
   - 0.0874868039801442 q - v + v = 0
 R127: - delta + 0.00020204 I - 0.0253313667208234 p - 0.012902774970114 q
   - v + v = 0
 R128: - delta + 3.9593066444473183e-04 I - 0.0354639134091527 p
   - 0.0180563978546953 q - v + v = 0
 R129: - delta + 0.00775948263021794 I - 0.1321473761445909 p
   - 0.1165118084100137 q - v + v = 0
 R130: - delta + 0.00442839510229664 I - 0.1003521434329368 p
   - 0.0874244114512752 q - v + v = 0
 R131: - delta + 0.0012627495966785 I - 0.0633284168020584 p
   - 0.0322569374252849 q - v + v = 0
 R132: - delta + 0.00730615377907715 I - 0.1215905602599522 p
   - 0.1201680106017385 q - v + v = 0
 R133: - delta + 8.8515839368825738e-04 I - 0.0387457604276633 p
   - 0.0451597123953989 q - v + v = 0
 R134: - delta + 0.0015469826174757 I - 0.0425517046886738 p
   - 0.0661610376127121 q - v + v = 0
 R135: - delta + 0.0311426212693751 I - 0.2495701154760924 p
   - 0.2495701154760924 q - v + v = 0
 R136: - delta + 0.0311426212693751 I - 0.2495701154760924 p
   - 0.2495701154760924 q - v + v = 0
 R137: - delta + 0.0311426212693751 I - 0.2495701154760924 p
   - 0.2495701154760924 q - v + v = 0
 R138: - delta + 0.00194641382933594 I - 0.0623925288690231 p
   - 0.0623925288690231 q - v + v = 0
 R139: - delta + 0.00194641382933594 I - 0.0623925288690231 p
   - 0.0623925288690231 q - v + v = 0
 R140: 0.1 y - delta <= 0.1
 R141: 0.1 y + delta <= 0.1
 R142: 0.1 y - delta <= 0.1
 R143: 0.1 y + delta <= 0.1
 R144: 0.1 y - delta <= 0.1
 R145: 0.1 y + delta <= 0.1
 R146: 0.1 y - delta <= 0.1
 R147: 0.1 y + delta <= 0.1
 R148: 0.1 y - delta <= 0.1
 R149: 0.1 y + delta <= 0.1
 R150: 0.1 y - delta <= 0.1
 R151: 0.1 y + delta <= 0.1
 R152: 0.1 y - delta <= 0.1
 R153: 0.1 y + delta <= 0.1
 R154: 0.1 y - delta <= 0.1
 R155: 0.1 y + delta <= 0.1
 R156: 0.1 y - delta <= 0.1
 R157: 0.1 y + delta <= 0.1
 R158: 0.1 y - delta <= 0.1
 R159: 0.1 y + delta <= 0.1
 R160: 0.1 y - delta <= 0.1
 R161: 0.1 y + delta <= 0.1
 R162: 0.1 y - delta <= 0.1
 R163: 0.1 y + delta <= 0.1
 R164: 0.1 y - delta <= 0.1
 R165: 0.1 y + delta <= 0.1
 R166: 0.1 y - delta <= 0.1
 R167: 0.1 y + delta <= 0.1
 R168: 0.1 y - delta <= 0.1
 R169: 0.1 y + delta <= 0.1
 R170: 0.1 y - delta <= 0.1
 R171: 0.1 y + delta <= 0.1
 R172: 0.1 y - delta <= 0.1
 R173: 0.1 y + delta <= 0.1
 R174: 0.1 y - delta <= 0.1
 R175: 0.1 y + delta <= 0.1
 R176: 0.1 y - delta <= 0.1
 R177: 0.1 y + delta <= 0.1
 R178: 0.1 y - delta <= 0.1
 R179: 0.1 y + delta <= 0.1
 R180: 0.1 y - delta <= 0.1
 R181: 0.1 y + delta <= 0.1
 R182: 0.1 y - delta <= 0.1
 R183: 0.1 y + delta <= 0.1
 R184: 0.1 y - delta <= 0.1
 R185: 0.1 y + delta <= 0.1
 R186: 0.1 y - delta <= 0.1
 R187: 0.1 y + delta <= 0.1
 R188: 0.1 y - delta <= 0.1
 R189: 0.1 y + delta <= 0.1
 R190: 0.1 y - delta <= 0.1
 R191: 0.1 y + delta <= 0.1
 R192: 0.1 y - delta <= 0.1
 R193: 0.1 y + delta <= 0.1
 R194: 0.1 y - delta <= 0.1
 R195: 0.1 y + delta <= 0.1
 R196: 0.1 y - delta <= 0.1
 R197: 0.1 y + delta <= 0.1
 R198: 0.1 y - delta <= 0.1
 R199: 0.1 y + delta <= 0.1
 R200: 0.1 y - delta <= 0.1
 R201: 0.1 y + delta <= 0.1
 R202: 0.1 y - delta <= 0.1
 R203: 0.1 y + delta <= 0.1
 R204: 0.1 y - delta <= 0.1
 R205: 0.1 y + delta <= 0.1
 R206: 0.1 y - delta <= 0.1
 R207: 0.1 y + delta <= 0.1
 R208: 0.1 y - delta <= 0.1
 R209: 0.1 y + delta <= 0.1
 R210: 0.1 y - delta <= 0.1
 R211: 0.1 y + delta <= 0.1
 R212: 0.1 y - delta <= 0.1
 R213: 0.1 y + delta <= 0.1
 R214: 0.1 y - delta <= 0.1
 R215: 0.1 y + delta <= 0.1
 R216: 0.1 y - delta <= 0.1
 R217: 0.1 y + delta <= 0.1
 R218: 0.1 y - delta <= 0.1
 R219: 0.1 y + delta <= 0.1
 R220: 0.1 y - delta <= 0.1
 R221: 0.1 y + delta <= 0.1
 R222: 0.1 y - delta <= 0.1
 R223: 0.1 y + delta <= 0.1
 R224: 0.1 y - delta <= 0.1
 R225: 0.1 y + delta <= 0.1
 R226: 0.1 y - delta <= 0.1
 R227: 0.1 y + delta <= 0.1
 R228: 0.1 y - delta <= 0.1
 R229: 0.1 y + delta <= 0.1
 R230: 0.1 y - delta <= 0.1
 R231: 0.1 y + delta <= 0.1
 R232: 0.1 y - delta <= 0.1
 R233: 0.1 y + delta <= 0.1
 R234: 0.1 y - delta <= 0.1
 R235: 0.1 y + delta <= 0.1
 R236: 0.1 y - delta <= 0.1
 R237: 0.1 y + delta <= 0.1
 R238: 0.1 y - delta <= 0.1
 R239: 0.1 y + delta <= 0.1
 R240: 0.1 y - delta <= 0.1
 R241: 0.1 y + delta <= 0.1
 R242: 0.1 y - delta <= 0.1
 R243: 0.1 y + delta <= 0.1
 R244: 0.1 y - delta <= 0.1
 R245: 0.1 y + delta <= 0.1
 R246: 0.1 y - delta <= 0.1
 R247: 0.1 y + delta <= 0.1
 R248: 0.1 y - delta <= 0.1
 R249: 0.1 y + delta <= 0.1
 R250: 0.1 y - delta <= 0.1
 R251: 0.1 y + delta <= 0.1
 R252: 0.1 y - delta <= 0.1
 R253: 0.1 y + delta <= 0.1
 R254: 0.1 y - delta <= 0.1
 R255: 0.1 y + delta <= 0.1
 R256: 0.1 y - delta <= 0.1
 R257: 0.1 y + delta <= 0.1
 R258: 0.1 y - delta <= 0.1
 R259: 0.1 y + delta <= 0.1
 R260: 0.1 y - delta <= 0.1
 R261: 0.1 y + delta <= 0.1
 R262: 0.1 y - delta <= 0.1
 R263: 0.1 y + delta <= 0.1
 R264: 0.1 y - delta <= 0.1
 R265: 0.1 y + delta <= 0.1
 R266: 0.1 y - delta <= 0.1
 R267: 0.1 y + delta <= 0.1
 R268: 0.1 y - delta <= 0.1
 R269: 0.1 y + delta <= 0.1
 R270: 0.1 y - delta <= 0.1
 R271: 0.1 y + delta <= 0.1
 R272: 0.1 y - delta <= 0.1
 R273: 0.1 y + delta <= 0.1
 R274: 0.1 y - delta <= 0.1
 R275: 0.1 y + delta <= 0.1
 R276: 0.1 y - delta <= 0.1
 R277: 0.1 y + delta <= 0.1
 R278: 0.1 y - delta <= 0.1
 R279: 0.1 y + delta <= 0.1
 R280: 0.1 y - delta <= 0.1
 R281: 0.1 y + delta <= 0.1
 R282: 0.1 y - delta <= 0.1
 R283: 0.1 y + delta <= 0.1
 R284: 0.1 y - delta <= 0.1
 R285: 0.1 y + delta <= 0.1
 R286: 0.1 y - delta <= 0.1
 R287: 0.1 y + delta <= 0.1
 R288: v >= 138.62236644
 R289: v <= 176.703849
 R290: v >= 138.62236644
 R291: v <= 176.703849
 R292: v >= 138.62236644
 R293: v <= 176.703849
 R294: v >= 138.62236644
 R295: v <= 176.703849
 R296: v >= 138.62236644
 R297: v <= 176.703849
 R298: v >= 138.62236644
 R299: v <= 176.703849
 R300: v >= 138.62236644
 R301: v <= 176.703849
 R302: v >= 138.62236644
 R303: v <= 176.703849
 R304: v >= 138.62236644
 R305: v <= 176.703849
 R306: v >= 138.62236644
 R307: v <= 176.703849
 R308: v >= 138.62236644
 R309: v <= 176.703849
 R310: v >= 138.62236644
 R311: v <= 176.703849
 R312: v >= 138.62236644
 R313: v <= 176.703849
 R314: v >= 138.62236644
 R315: v <= 176.703849
 R316: v >= 138.62236644
 R317: v <= 176.703849
 R318: v >= 138.62236644
 R319: v <= 176.703849
 R320: v >= 138.62236644
 R321: v <= 176.703849
 R322: v >= 138.62236644
 R323: v <= 176.703849
 R324: v >= 138.62236644
 R325: v <= 176.703849
 R326: v >= 138.62236644
 R327: v <= 176.703849
 R328: v >= 138.62236644
 R329: v <= 176.703849
 R330: v >= 138.62236644
 R331: v <= 176.703849
 R332: v >= 138.62236644
 R333: v <= 176.703849
 R334: v >= 138.62236644
 R335: v <= 176.703849
 R336: v >= 138.62236644
 R337: v <= 176.703849
 R338: v >= 138.62236644
 R339: v <= 176.703849
 R340: v >= 138.62236644
 R341: v <= 176.703849
 R342: v >= 138.62236644
 R343: v <= 176.703849
 R344: v >= 138.62236644
 R345: v <= 176.703849
 R346: v >= 138.62236644
 R347: v <= 176.703849
 R348: v >= 138.62236644
 R349: v <= 176.703849
 R350: v >= 138.62236644
 R351: v <= 176.703849
 R352: v >= 138.62236644
 R353: v <= 176.703849
 R354: I >= 0
 R355: - 5.3397262174743582e+06 y + I <= 0
 R356: I >= 0
 R357: - 186761.3453194818 y + I <= 0
 R358: I >= 0
 R359: - 338858.7164334165 y + I <= 0
 R360: I >= 0
 R361: - 312538.0762860616 y + I <= 0
 R362: I >= 0
 R363: - 67672.62589589247 y + I <= 0
 R364: I >= 0
 R365: - 1.295296355038567e+06 y + I <= 0
 R366: I >= 0
 R367: - 89691.87655600741 y + I <= 0
 R368: I >= 0
 R369: - 42786.46264356181 y + I <= 0
 R370: I >= 0
 R371: - 41646.62715843382 y + I <= 0
 R372: I >= 0
 R373: - 1.1743939499092596e+06 y + I <= 0
 R374: I >= 0
 R375: - 323824.0887596417 y + I <= 0
 R376: I >= 0
 R377: - 21063.41192420815 y + I <= 0
 R378: I >= 0
 R379: - 154747.4569937573 y + I <= 0
 R380: I >= 0
 R381: - 129958.8532400982 y + I <= 0
 R382: I >= 0
 R383: - 81499.31321116239 y + I <= 0
 R384: I >= 0
 R385: - 27319.64159258579 y + I <= 0
 R386: I >= 0
 R387: - 84714.67910835413 y + I <= 0
 R388: I >= 0
 R389: - 1.6876917838546527e+06 y + I <= 0
 R390: I >= 0
 R391: - 20061.7892374227 y + I <= 0
 R392: I >= 0
 R393: - 270690.5035835699 y + I <= 0
 R394: I >= 0
 R395: - 90325.60507777042 y + I <= 0
 R396: I >= 0
 R397: - 222968.0574936239 y + I <= 0
 R398: I >= 0
 R399: - 56289.59952896405 y + I <= 0
 R400: I >= 0
 R401: - 56541.1728447798 y + I <= 0
 R402: I >= 0
 R403: - 1.1015107917822499e+06 y + I <= 0
 R404: I >= 0
 R405: - 561995.3019297194 y + I <= 0
 R406: I >= 0
 R407: - 40475.19148211583 y + I <= 0
 R408: I >= 0
 R409: - 70186.35596739776 y + I <= 0
 R410: I >= 0
 R411: - 176241.72668516 y + I <= 0
 R412: I >= 0
 R413: - 47808.62811554904 y + I <= 0
 R414: I >= 0
 R415: - 470822.9489971734 y + I <= 0
 R416: I >= 0
 R417: - 390366.0806026326 y + I <= 0
 R418: I >= 0
 R419: - 11348.03955463868 y + I <= 0
 R420: I >= 0
 R421: - 11348.03955463868 y + I <= 0
 R422: I >= 0
 R423: - 11348.03955463868 y + I <= 0
 R424: I >= 0
 R425: - 181568.6328742189 y + I <= 0
 R426: I >= 0
 R427: - 181568.6328742189 y + I <= 0
 R428: I >= 0
 R429: - 5.3397262174743582e+06 y + I <= 0
 R430: I >= 0
 R431: - 186761.3453194818 y + I <= 0
 R432: I >= 0
 R433: - 338858.7164334165 y + I <= 0
 R434: I >= 0
 R435: - 312538.0762860616 y + I <= 0
 R436: I >= 0
 R437: - 67672.62589589247 y + I <= 0
 R438: I >= 0
 R439: - 1.295296355038567e+06 y + I <= 0
 R440: I >= 0
 R441: - 89691.87655600741 y + I <= 0
 R442: I >= 0
 R443: - 42786.46264356181 y + I <= 0
 R444: I >= 0
 R445: - 41646.62715843382 y + I <= 0
 R446: I >= 0
 R447: - 1.1743939499092596e+06 y + I <= 0
 R448: I >= 0
 R449: - 323824.0887596417 y + I <= 0
 R450: I >= 0
 R451: - 21063.41192420815 y + I <= 0
 R452: I >= 0
 R453: - 154747.4569937573 y + I <= 0
 R454: I >= 0
 R455: - 129958.8532400982 y + I <= 0
 R456: I >= 0
 R457: - 81499.31321116239 y + I <= 0
 R458: I >= 0
 R459: - 27319.64159258579 y + I <= 0
 R460: I >= 0
 R461: - 84714.67910835413 y + I <= 0
 R462: I >= 0
 R463: - 1.6876917838546527e+06 y + I <= 0
 R464: I >= 0
 R465: - 20061.7892374227 y + I <= 0
 R466: I >= 0
 R467: - 270690.5035835699 y + I <= 0
 R468: I >= 0
 R469: - 90325.60507777042 y + I <= 0
 R470: I >= 0
 R471: - 222968.0574936239 y + I <= 0
 R472: I >= 0
 R473: - 56289.59952896405 y + I <= 0
 R474: I >= 0
 R475: - 56541.1728447798 y + I <= 0
 R476: I >= 0
 R477: - 1.1015107917822499e+06 y + I <= 0
 R478: I >= 0
 R479: - 561995.3019297194 y + I <= 0
 R480: I >= 0
 R481: - 40475.19148211583 y + I <= 0
 R482: I >= 0
 R483: - 70186.35596739776 y + I <= 0
 R484: I >= 0
 R485: - 176241.72668516 y + I <= 0
 R486: I >= 0
 R487: - 47808.62811554904 y + I <= 0
 R488: I >= 0
 R489: - 470822.9489971734 y + I <= 0
 R490: I >= 0
 R491: - 390366.0806026326 y + I <= 0
 R492: I >= 0
 R493: - 11348.03955463868 y + I <= 0
 R494: I >= 0
 R495: - 11348.03955463868 y + I <= 0
 R496: I >= 0
 R497: - 11348.03955463868 y + I <= 0
 R498: I >= 0
 R499: - 181568.6328742189 y + I <= 0
 R500: I >= 0
 R501: - 181568.6328742189 y + I <= 0
 solo_una_una_direccion_de_flujo_entre_los_nodos_1_2: y + y <= 1
 solo_una_una_direccion_de_flujo_entre_los_nodos_2_3: y + y <= 1
 solo_una_una_direccion_de_flujo_entre_los_nodos_3_4: y + y <= 1
 solo_una_una_direccion_de_flujo_entre_los_nodos_4_5: y + y <= 1
 solo_una_una_direccion_de_flujo_entre_los_nodos_5_6: y + y <= 1
 solo_una_una_direccion_de_flujo_entre_los_nodos_6_7: y + y <= 1
 solo_una_una_direccion_de_flujo_entre_los_nodos_7_8: y + y <= 1
 solo_una_una_direccion_de_flujo_entre_los_nodos_8_9: y + y <= 1
 solo_una_una_direccion_de_flujo_entre_los_nodos_9_10: y + y <= 1
 solo_una_una_direccion_de_flujo_entre_los_nodos_10_11: y + y <= 1
 solo_una_una_direccion_de_flujo_entre_los_nodos_11_12: y + y <= 1
 solo_una_una_direccion_de_flujo_entre_los_nodos_12_13: y + y <= 1
 solo_una_una_direccion_de_flujo_entre_los_nodos_13_14: y + y <= 1
 solo_una_una_direccion_de_flujo_entre_los_nodos_14_15: y + y <= 1
 solo_una_una_direccion_de_flujo_entre_los_nodos_15_16: y + y <= 1
 solo_una_una_direccion_de_flujo_entre_los_nodos_16_17: y + y <= 1
 solo_una_una_direccion_de_flujo_entre_los_nodos_17_18: y + y <= 1
 solo_una_una_direccion_de_flujo_entre_los_nodos_2_19: y + y <= 1
 solo_una_una_direccion_de_flujo_entre_los_nodos_19_20: y + y <= 1
 solo_una_una_direccion_de_flujo_entre_los_nodos_20_21: y + y <= 1
 solo_una_una_direccion_de_flujo_entre_los_nodos_21_22: y + y <= 1
 solo_una_una_direccion_de_flujo_entre_los_nodos_3_23: y + y <= 1
 solo_una_una_direccion_de_flujo_entre_los_nodos_23_24: y + y <= 1
 solo_una_una_direccion_de_flujo_entre_los_nodos_24_25: y + y <= 1
 solo_una_una_direccion_de_flujo_entre_los_nodos_6_26: y + y <= 1
 solo_una_una_direccion_de_flujo_entre_los_nodos_26_27: y + y <= 1
 solo_una_una_direccion_de_flujo_entre_los_nodos_27_28: y + y <= 1
 solo_una_una_direccion_de_flujo_entre_los_nodos_28_29: y + y <= 1
 solo_una_una_direccion_de_flujo_entre_los_nodos_29_30: y + y <= 1
 solo_una_una_direccion_de_flujo_entre_los_nodos_30_31: y + y <= 1
 solo_una_una_direccion_de_flujo_entre_los_nodos_31_32: y + y <= 1
 solo_una_una_direccion_de_flujo_entre_los_nodos_32_33: y + y <= 1
 solo_una_una_direccion_de_flujo_entre_los_nodos_8_21: y + y <= 1
 solo_una_una_direccion_de_flujo_entre_los_nodos_9_15: y + y <= 1
 solo_una_una_direccion_de_flujo_entre_los_nodos_12_22: y + y <= 1
 solo_una_una_direccion_de_flujo_entre_los_nodos_18_33: y + y <= 1
 solo_una_una_direccion_de_flujo_entre_los_nodos_25_29: y + y <= 1
 solo_una_una_direccion_de_flujo_entre_los_nodos_2_1: y + y <= 1
 solo_una_una_direccion_de_flujo_entre_los_nodos_3_2: y + y <= 1
 solo_una_una_direccion_de_flujo_entre_los_nodos_4_3: y + y <= 1
 solo_una_una_direccion_de_flujo_entre_los_nodos_5_4: y + y <= 1
 solo_una_una_direccion_de_flujo_entre_los_nodos_6_5: y + y <= 1
 solo_una_una_direccion_de_flujo_entre_los_nodos_7_6: y + y <= 1
 solo_una_una_direccion_de_flujo_entre_los_nodos_8_7: y + y <= 1
 solo_una_una_direccion_de_flujo_entre_los_nodos_9_8: y + y <= 1
 solo_una_una_direccion_de_flujo_entre_los_nodos_10_9: y + y <= 1
 solo_una_una_direccion_de_flujo_entre_los_nodos_11_10: y + y <= 1
 solo_una_una_direccion_de_flujo_entre_los_nodos_12_11: y + y <= 1
 solo_una_una_direccion_de_flujo_entre_los_nodos_13_12: y + y <= 1
 solo_una_una_direccion_de_flujo_entre_los_nodos_14_13: y + y <= 1
 solo_una_una_direccion_de_flujo_entre_los_nodos_15_14: y + y <= 1
 solo_una_una_direccion_de_flujo_entre_los_nodos_16_15: y + y <= 1
 solo_una_una_direccion_de_flujo_entre_los_nodos_17_16: y + y <= 1
 solo_una_una_direccion_de_flujo_entre_los_nodos_18_17: y + y <= 1
 solo_una_una_direccion_de_flujo_entre_los_nodos_19_2: y + y <= 1
 solo_una_una_direccion_de_flujo_entre_los_nodos_20_19: y + y <= 1
 solo_una_una_direccion_de_flujo_entre_los_nodos_21_20: y + y <= 1
 solo_una_una_direccion_de_flujo_entre_los_nodos_22_21: y + y <= 1
 solo_una_una_direccion_de_flujo_entre_los_nodos_23_3: y + y <= 1
 solo_una_una_direccion_de_flujo_entre_los_nodos_24_23: y + y <= 1
 solo_una_una_direccion_de_flujo_entre_los_nodos_25_24: y + y <= 1
 solo_una_una_direccion_de_flujo_entre_los_nodos_26_6: y + y <= 1
 solo_una_una_direccion_de_flujo_entre_los_nodos_27_26: y + y <= 1
 solo_una_una_direccion_de_flujo_entre_los_nodos_28_27: y + y <= 1
 solo_una_una_direccion_de_flujo_entre_los_nodos_29_28: y + y <= 1
 solo_una_una_direccion_de_flujo_entre_los_nodos_30_29: y + y <= 1
 solo_una_una_direccion_de_flujo_entre_los_nodos_31_30: y + y <= 1
 solo_una_una_direccion_de_flujo_entre_los_nodos_32_31: y + y <= 1
 solo_una_una_direccion_de_flujo_entre_los_nodos_33_32: y + y <= 1
 solo_una_una_direccion_de_flujo_entre_los_nodos_21_8: y + y <= 1
 solo_una_una_direccion_de_flujo_entre_los_nodos_15_9: y + y <= 1
 solo_una_una_direccion_de_flujo_entre_los_nodos_22_12: y + y <= 1
 solo_una_una_direccion_de_flujo_entre_los_nodos_33_18: y + y <= 1
 solo_una_una_direccion_de_flujo_entre_los_nodos_29_25: y + y <= 1
 radialidad: y + y + y + y + y + y + y + y + y + y + y + y + y + y + y + y
   + y + y + y + y + y + y + y + y + y + y + y + y + y + y + y + y + y + y
   + y + y + y + y + y + y + y + y + y + y + y + y + y + y + y + y + y + y
   + y + y + y + y + y + y + y + y + y + y + y + y + y + y + y + y + y + y
   + y + y + y + y = 32
 conexion1: y >= 1
 conexion2: y + y + y >= 1
 conexion3: y + y + y >= 1
 conexion4: y + y >= 1
 conexion5: y + y >= 1
 conexion6: y + y + y >= 1
 conexion7: y + y >= 1
 conexion8: y + y + y >= 1
 conexion9: y + y + y >= 1
 conexion10: y + y >= 1
 conexion11: y + y >= 1
 conexion12: y + y + y >= 1
 conexion13: y + y >= 1
 conexion14: y + y >= 1
 conexion15: y + y + y >= 1
 conexion16: y + y >= 1
 conexion17: y + y >= 1
 conexion18: y + y >= 1
 conexion19: y + y >= 1
 conexion20: y + y >= 1
 conexion21: y + y + y >= 1
 conexion22: y + y >= 1
 conexion23: y + y >= 1
 conexion24: y + y >= 1
 conexion25: y + y >= 1
 conexion26: y + y >= 1
 conexion27: y + y >= 1
 conexion28: y + y >= 1
 conexion29: y + y + y >= 1
 conexion30: y + y >= 1
 conexion31: y + y >= 1
 conexion32: y + y >= 1
 conexion33: y + y >= 1
 qc0: [ I * v - p ^2 - q ^2 ] >= 0
 qc1: [ I * v - p ^2 - q ^2 ] >= 0
 qc2: [ I * v - p ^2 - q ^2 ] >= 0
 qc3: [ I * v - p ^2 - q ^2 ] >= 0
 qc4: [ I * v - p ^2 - q ^2 ] >= 0
 qc5: [ I * v - p ^2 - q ^2 ] >= 0
 qc6: [ I * v - p ^2 - q ^2 ] >= 0
 qc7: [ I * v - p ^2 - q ^2 ] >= 0
 qc8: [ I * v - p ^2 - q ^2 ] >= 0
 qc9: [ I * v - p ^2 - q ^2 ] >= 0
 qc10: [ I * v - p ^2 - q ^2 ] >= 0
 qc11: [ I * v - p ^2 - q ^2 ] >= 0
 qc12: [ I * v - p ^2 - q ^2 ] >= 0
 qc13: [ I * v - p ^2 - q ^2 ] >= 0
 qc14: [ I * v - p ^2 - q ^2 ] >= 0
 qc15: [ I * v - p ^2 - q ^2 ] >= 0
 qc16: [ I * v - p ^2 - q ^2 ] >= 0
 qc17: [ I * v - p ^2 - q ^2 ] >= 0
 qc18: [ I * v - p ^2 - q ^2 ] >= 0
 qc19: [ I * v - p ^2 - q ^2 ] >= 0
 qc20: [ I * v - p ^2 - q ^2 ] >= 0
 qc21: [ I * v - p ^2 - q ^2 ] >= 0
 qc22: [ I * v - p ^2 - q ^2 ] >= 0
 qc23: [ I * v - p ^2 - q ^2 ] >= 0
 qc24: [ I * v - p ^2 - q ^2 ] >= 0
 qc25: [ I * v - p ^2 - q ^2 ] >= 0
 qc26: [ I * v - p ^2 - q ^2 ] >= 0
 qc27: [ I * v - p ^2 - q ^2 ] >= 0
 qc28: [ I * v - p ^2 - q ^2 ] >= 0
 qc29: [ I * v - p ^2 - q ^2 ] >= 0
 qc30: [ I * v - p ^2 - q ^2 ] >= 0
 qc31: [ I * v - p ^2 - q ^2 ] >= 0
 qc32: [ I * v - p ^2 - q ^2 ] >= 0
 qc33: [ I * v - p ^2 - q ^2 ] >= 0
 qc34: [ I * v - p ^2 - q ^2 ] >= 0
 qc35: [ I * v - p ^2 - q ^2 ] >= 0
 qc36: [ I * v - p ^2 - q ^2 ] >= 0
 qc37: [ I * v - p ^2 - q ^2 ] >= 0
 qc38: [ I * v - p ^2 - q ^2 ] >= 0
 qc39: [ I * v - p ^2 - q ^2 ] >= 0
 qc40: [ I * v - p ^2 - q ^2 ] >= 0
 qc41: [ I * v - p ^2 - q ^2 ] >= 0
 qc42: [ I * v - p ^2 - q ^2 ] >= 0
 qc43: [ I * v - p ^2 - q ^2 ] >= 0
 qc44: [ I * v - p ^2 - q ^2 ] >= 0
 qc45: [ I * v - p ^2 - q ^2 ] >= 0
 qc46: [ I * v - p ^2 - q ^2 ] >= 0
 qc47: [ I * v - p ^2 - q ^2 ] >= 0
 qc48: [ I * v - p ^2 - q ^2 ] >= 0
 qc49: [ I * v - p ^2 - q ^2 ] >= 0
 qc50: [ I * v - p ^2 - q ^2 ] >= 0
 qc51: [ I * v - p ^2 - q ^2 ] >= 0
 qc52: [ I * v - p ^2 - q ^2 ] >= 0
 qc53: [ I * v - p ^2 - q ^2 ] >= 0
 qc54: [ I * v - p ^2 - q ^2 ] >= 0
 qc55: [ I * v - p ^2 - q ^2 ] >= 0
 qc56: [ I * v - p ^2 - q ^2 ] >= 0
 qc57: [ I * v - p ^2 - q ^2 ] >= 0
 qc58: [ I * v - p ^2 - q ^2 ] >= 0
 qc59: [ I * v - p ^2 - q ^2 ] >= 0
 qc60: [ I * v - p ^2 - q ^2 ] >= 0
 qc61: [ I * v - p ^2 - q ^2 ] >= 0
 qc62: [ I * v - p ^2 - q ^2 ] >= 0
 qc63: [ I * v - p ^2 - q ^2 ] >= 0
 qc64: [ I * v - p ^2 - q ^2 ] >= 0
 qc65: [ I * v - p ^2 - q ^2 ] >= 0
 qc66: [ I * v - p ^2 - q ^2 ] >= 0
 qc67: [ I * v - p ^2 - q ^2 ] >= 0
 qc68: [ I * v - p ^2 - q ^2 ] >= 0
 qc69: [ I * v - p ^2 - q ^2 ] >= 0
 qc70: [ I * v - p ^2 - q ^2 ] >= 0
 qc71: [ I * v - p ^2 - q ^2 ] >= 0
 qc72: [ I * v - p ^2 - q ^2 ] >= 0
 qc73: [ I * v - p ^2 - q ^2 ] >= 0
Bounds
 -1.5192 <= delta <= 1.5192
 I <= 1
 p <= 1
 q <= 1
 -1.5192 <= delta <= 1.5192
 I <= 1
 p <= 1
 q <= 1
 -1.5192 <= delta <= 1.5192
 I <= 1
 p <= 1
 q <= 1
 -1.5192 <= delta <= 1.5192
 I <= 1
 p <= 1
 q <= 1
 -1.5192 <= delta <= 1.5192
 I <= 1
 p <= 1
 q <= 1
 -1.5192 <= delta <= 1.5192
 I <= 1
 p <= 1
 q <= 1
 -1.5192 <= delta <= 1.5192
 I <= 1
 p <= 1
 q <= 1
 -1.5192 <= delta <= 1.5192
 I <= 1
 p <= 1
 q <= 1
 -1.5192 <= delta <= 1.5192
 I <= 1
 p <= 1
 q <= 1
 -1.5192 <= delta <= 1.5192
 I <= 1
 p <= 1
 q <= 1
 -1.5192 <= delta <= 1.5192
 I <= 1
 p <= 1
 q <= 1
 -1.5192 <= delta <= 1.5192
 I <= 1
 p <= 1
 q <= 1
 -1.5192 <= delta <= 1.5192
 I <= 1
 p <= 1
 q <= 1
 -1.5192 <= delta <= 1.5192
 I <= 1
 p <= 1
 q <= 1
 -1.5192 <= delta <= 1.5192
 I <= 1
 p <= 1
 q <= 1
 -1.5192 <= delta <= 1.5192
 I <= 1
 p <= 1
 q <= 1
 -1.5192 <= delta <= 1.5192
 I <= 1
 p <= 1
 q <= 1
 -1.5192 <= delta <= 1.5192
 I <= 1
 p <= 1
 q <= 1
 -1.5192 <= delta <= 1.5192
 I <= 1
 p <= 1
 q <= 1
 -1.5192 <= delta <= 1.5192
 I <= 1
 p <= 1
 q <= 1
 -1.5192 <= delta <= 1.5192
 I <= 1
 p <= 1
 q <= 1
 -1.5192 <= delta <= 1.5192
 I <= 1
 p <= 1
 q <= 1
 -1.5192 <= delta <= 1.5192
 I <= 1
 p <= 1
 q <= 1
 -1.5192 <= delta <= 1.5192
 I <= 1
 p <= 1
 q <= 1
 -1.5192 <= delta <= 1.5192
 I <= 1
 p <= 1
 q <= 1
 -1.5192 <= delta <= 1.5192
 I <= 1
 p <= 1
 q <= 1
 -1.5192 <= delta <= 1.5192
 I <= 1
 p <= 1
 q <= 1
 -1.5192 <= delta <= 1.5192
 I <= 1
 p <= 1
 q <= 1
 -1.5192 <= delta <= 1.5192
 I <= 1
 p <= 1
 q <= 1
 -1.5192 <= delta <= 1.5192
 I <= 1
 p <= 1
 q <= 1
 -1.5192 <= delta <= 1.5192
 I <= 1
 p <= 1
 q <= 1
 -1.5192 <= delta <= 1.5192
 I <= 1
 p <= 1
 q <= 1
 -1.5192 <= delta <= 1.5192
 I <= 1
 p <= 1
 q <= 1
 -1.5192 <= delta <= 1.5192
 I <= 1
 p <= 1
 q <= 1
 -1.5192 <= delta <= 1.5192
 I <= 1
 p <= 1
 q <= 1
 -1.5192 <= delta <= 1.5192
 I <= 1
 p <= 1
 q <= 1
 -1.5192 <= delta <= 1.5192
 I <= 1
 p <= 1
 q <= 1
 -1.5192 <= delta <= 1.5192
 I <= 1
 p <= 1
 q <= 1
 -1.5192 <= delta <= 1.5192
 I <= 1
 p <= 1
 q <= 1
 -1.5192 <= delta <= 1.5192
 I <= 1
 p <= 1
 q <= 1
 -1.5192 <= delta <= 1.5192
 I <= 1
 p <= 1
 q <= 1
 -1.5192 <= delta <= 1.5192
 I <= 1
 p <= 1
 q <= 1
 -1.5192 <= delta <= 1.5192
 I <= 1
 p <= 1
 q <= 1
 -1.5192 <= delta <= 1.5192
 I <= 1
 p <= 1
 q <= 1
 -1.5192 <= delta <= 1.5192
 I <= 1
 p <= 1
 q <= 1
 -1.5192 <= delta <= 1.5192
 I <= 1
 p <= 1
 q <= 1
 -1.5192 <= delta <= 1.5192
 I <= 1
 p <= 1
 q <= 1
 -1.5192 <= delta <= 1.5192
 I <= 1
 p <= 1
 q <= 1
 -1.5192 <= delta <= 1.5192
 I <= 1
 p <= 1
 q <= 1
 -1.5192 <= delta <= 1.5192
 I <= 1
 p <= 1
 q <= 1
 -1.5192 <= delta <= 1.5192
 I <= 1
 p <= 1
 q <= 1
 -1.5192 <= delta <= 1.5192
 I <= 1
 p <= 1
 q <= 1
 -1.5192 <= delta <= 1.5192
 I <= 1
 p <= 1
 q <= 1
 -1.5192 <= delta <= 1.5192
 I <= 1
 p <= 1
 q <= 1
 -1.5192 <= delta <= 1.5192
 I <= 1
 p <= 1
 q <= 1
 -1.5192 <= delta <= 1.5192
 I <= 1
 p <= 1
 q <= 1
 -1.5192 <= delta <= 1.5192
 I <= 1
 p <= 1
 q <= 1
 -1.5192 <= delta <= 1.5192
 I <= 1
 p <= 1
 q <= 1
 -1.5192 <= delta <= 1.5192
 I <= 1
 p <= 1
 q <= 1
 -1.5192 <= delta <= 1.5192
 I <= 1
 p <= 1
 q <= 1
 -1.5192 <= delta <= 1.5192
 I <= 1
 p <= 1
 q <= 1
 -1.5192 <= delta <= 1.5192
 I <= 1
 p <= 1
 q <= 1
 -1.5192 <= delta <= 1.5192
 I <= 1
 p <= 1
 q <= 1
 -1.5192 <= delta <= 1.5192
 I <= 1
 p <= 1
 q <= 1
 -1.5192 <= delta <= 1.5192
 I <= 1
 p <= 1
 q <= 1
 -1.5192 <= delta <= 1.5192
 I <= 1
 p <= 1
 q <= 1
 -1.5192 <= delta <= 1.5192
 I <= 1
 p <= 1
 q <= 1
 -1.5192 <= delta <= 1.5192
 I <= 1
 p <= 1
 q <= 1
 -1.5192 <= delta <= 1.5192
 I <= 1
 p <= 1
 q <= 1
 -1.5192 <= delta <= 1.5192
 I <= 1
 p <= 1
 q <= 1
 -1.5192 <= delta <= 1.5192
 I <= 1
 p <= 1
 q <= 1
 -1.5192 <= delta <= 1.5192
 I <= 1
 p <= 1
 q <= 1
 -1.5192 <= delta <= 1.5192
 I <= 1
 p <= 1
 q <= 1
 -1.5192 <= delta <= 1.5192
 I <= 1
 p <= 1
 q <= 1
 138.62236644 <= v <= 176.703849
 138.62236644 <= v <= 176.703849
 138.62236644 <= v <= 176.703849
 138.62236644 <= v <= 176.703849
 138.62236644 <= v <= 176.703849
 138.62236644 <= v <= 176.703849
 138.62236644 <= v <= 176.703849
 138.62236644 <= v <= 176.703849
 138.62236644 <= v <= 176.703849
 138.62236644 <= v <= 176.703849
 138.62236644 <= v <= 176.703849
 138.62236644 <= v <= 176.703849
 138.62236644 <= v <= 176.703849
 138.62236644 <= v <= 176.703849
 138.62236644 <= v <= 176.703849
 138.62236644 <= v <= 176.703849
 138.62236644 <= v <= 176.703849
 138.62236644 <= v <= 176.703849
 138.62236644 <= v <= 176.703849
 138.62236644 <= v <= 176.703849
 138.62236644 <= v <= 176.703849
 138.62236644 <= v <= 176.703849
 138.62236644 <= v <= 176.703849
 138.62236644 <= v <= 176.703849
 138.62236644 <= v <= 176.703849
 138.62236644 <= v <= 176.703849
 138.62236644 <= v <= 176.703849
 138.62236644 <= v <= 176.703849
 138.62236644 <= v <= 176.703849
 138.62236644 <= v <= 176.703849
 138.62236644 <= v <= 176.703849
 138.62236644 <= v <= 176.703849
 138.62236644 <= v <= 176.703849
Binaries
 y y y y y y y y y y y y y y y y y y y y y y y y y y y y y y y y y y y y y
 y y y y y y y y y y y y y y y y y y y y y y y y y y y y y y y y y y y y y
End
